data/processed_heuristic-threshold/instances/1/8/ds_817_courier_3156/pairwise.tsp
NAME: ds_817_courier_3156
TYPE: TSP
COMMENT: nil
DIMENSION: 9
EDGE_WEIGHT_TYPE: EXPLICIT
EDGE_WEIGHT_FORMAT: FULL_MATRIX
EDGE_WEIGHT_SECTION
9999 2961 3171 3206 3247 2940 2580 3186 3095 
2961 9999 635 338 682 535 945 397 340 
3171 635 9999 864 77 1168 1559 284 937 
3206 338 864 9999 887 420 927 582 142 
3247 682 77 887 9999 1210 1615 306 970 
2940 535 1168 420 1210 9999 513 912 281 
2580 945 1559 927 1615 513 9999 1342 786 
3186 397 284 582 306 912 1342 9999 665 
3095 340 937 142 970 281 786 665 9999 
