data/processed_heuristic-threshold/instances/1/8/ds_817_courier_3156/pairwise.sol
9
0 6 5 8 3 1 7 4 2 
